51
120
84	1
83	5
82	2
81	2
80	1
79	1
78	1
77	1
76	4
74	2
72	2
71	1
70	3
69	2
68	2
65	1
64	2
63	3
62	2
61	3
60	3
59	1
58	4
57	5
56	1
54	2
53	1
52	1
51	2
50	1
49	2
48	2
47	1
46	5
45	2
44	2
43	1
42	1
41	2
39	3
38	5
37	1
36	1
35	2
33	2
32	1
31	1
30	1
27	1
26	1
24	1
